************************************************************************
file with basedata            : mm14_.bas
initial value random generator: 241842919
************************************************************************
projects                      :  1
jobs (incl. supersource/sink ):  12
horizon                       :  87
RESOURCES
  - renewable                 :  2   R
  - nonrenewable              :  2   N
  - doubly constrained        :  0   D
************************************************************************
PROJECT INFORMATION:
pronr.  #jobs rel.date duedate tardcost  MPM-Time
    1     10      0       14        7       14
************************************************************************
PRECEDENCE RELATIONS:
jobnr.    #modes  #successors   successors
   0        1          3           1   2   3
   1        3          2           5   8
   2        3          1           4
   3        3          2           6  10
   4        3          2           7   9
   5        3          2           9  10
   6        3          2           8   9
   7        3          1           8
   8        3          1          11
   9        3          1          11
  10        3          1          11
  11        1          0        
************************************************************************
REQUESTS/DURATIONS:
jobnr. mode duration  R 1  R 2  R 3  R 4  E(W 1)  E(W 2)  E(W 3)
------------------------------------------------------------------------
  0      1     0       0    0    0    0     0       0       0
  1      1     4       9    0    6    8    36      24      32
  2      1     2       0    3    5    7     6      10      14
  3      1     2       9    0    8    9    18      16      18
  4      1     5       4    0    6    6    20      30      30
  5      1     7       0    7    9    2    49      63      14
  6      1     2      10    0    7    7    20      14      14
  7      1     1       0    8    8    5     8       8       5
  8      1     4       0    8    4    7    32      16      28
  9      1     3       0    5    6    7    15      18      21
 10      1     2       2    0    6    7     4      12      14
 11      1     0       0    0    0    0     0       0       0
************************************************************************
RESOURCEAVAILABILITIES:
  R 1  R 2  R 3
   34   55   54
************************************************************************
RESOURCE LIMITS:
jobnr.  l(R 1)  u(R 1)  l(R 2)  u(R 2)  l(R 3)  u(R 3)
------------------------------------------------------------------------
  0        0       0       0       0       0       0
  1        5       9       3       6       4       8
  2        2       3       3       5       4       7
  3        5       9       4       8       5       9
  4        2       4       3       6       3       6
  5        4       7       5       9       1       2
  6        5      10       4       7       4       7
  7        4       8       4       8       3       5
  8        4       8       2       4       4       7
  9        3       5       3       6       4       7
 10        1       2       3       6       4       7
 11        0       0       0       0       0       0
************************************************************************
SCENARIOS:
------------------------------------------------------------------------
RESOURCE k = 1
s = 1: (0, 41, 6, 15, 26, 43, 13, 9, 32, 15, 6, 0)
s = 2: (0, 29, 7, 28, 25, 37, 25, 10, 49, 19, 6, 0)
s = 3: (0, 27, 4, 13, 17, 32, 19, 11, 54, 12, 4, 0)
s = 4: (0, 33, 5, 13, 18, 62, 27, 8, 43, 13, 5, 0)
s = 5: (0, 48, 6, 20, 17, 47, 25, 10, 32, 19, 6, 0)
s = 6: (0, 23, 6, 18, 20, 54, 23, 9, 42, 18, 4, 0)
s = 7: (0, 33, 5, 28, 22, 42, 14, 11, 38, 9, 3, 0)
s = 8: (0, 32, 5, 18, 19, 60, 19, 10, 23, 11, 5, 0)
s = 9: (0, 40, 6, 20, 25, 43, 14, 9, 34, 15, 6, 0)
s = 10: (0, 53, 10, 14, 17, 52, 11, 6, 26, 12, 5, 0)
s = 11: (0, 52, 9, 13, 16, 44, 18, 9, 37, 16, 5, 0)
s = 12: (0, 55, 4, 18, 13, 34, 25, 7, 18, 12, 6, 0)
s = 13: (0, 48, 6, 23, 29, 28, 25, 6, 32, 17, 5, 0)
s = 14: (0, 30, 9, 22, 15, 47, 13, 9, 29, 23, 6, 0)
s = 15: (0, 40, 4, 20, 14, 41, 22, 8, 22, 17, 5, 0)
s = 16: (0, 38, 7, 19, 30, 59, 13, 6, 19, 13, 4, 0)
s = 17: (0, 51, 5, 11, 12, 67, 23, 8, 51, 18, 3, 0)
s = 18: (0, 28, 4, 27, 16, 60, 14, 6, 28, 16, 5, 0)
s = 19: (0, 27, 5, 13, 17, 33, 27, 14, 29, 16, 4, 0)
s = 20: (0, 33, 7, 11, 29, 43, 13, 11, 37, 14, 3, 0)
s = 21: (0, 36, 6, 14, 22, 39, 21, 12, 35, 10, 6, 0)
s = 22: (0, 27, 6, 28, 26, 50, 24, 9, 51, 12, 4, 0)
s = 23: (0, 30, 9, 18, 31, 81, 19, 6, 24, 14, 4, 0)
s = 24: (0, 39, 5, 19, 15, 57, 27, 10, 33, 17, 3, 0)
s = 25: (0, 26, 6, 15, 13, 65, 28, 9, 40, 10, 3, 0)
s = 26: (0, 57, 6, 21, 16, 71, 14, 7, 29, 12, 6, 0)
s = 27: (0, 33, 9, 24, 13, 62, 26, 8, 51, 13, 3, 0)
s = 28: (0, 29, 8, 16, 21, 52, 17, 6, 38, 14, 6, 0)
s = 29: (0, 51, 5, 22, 17, 54, 20, 9, 23, 19, 5, 0)
s = 30: (0, 32, 6, 22, 25, 65, 18, 5, 27, 14, 4, 0)
s = 31: (0, 29, 8, 16, 28, 31, 22, 8, 47, 14, 5, 0)
s = 32: (0, 40, 6, 17, 17, 57, 14, 10, 28, 17, 8, 0)
s = 33: (0, 37, 7, 12, 17, 26, 18, 5, 42, 14, 7, 0)
s = 34: (0, 33, 9, 18, 16, 32, 26, 5, 20, 10, 7, 0)
s = 35: (0, 34, 7, 17, 16, 45, 15, 7, 36, 10, 5, 0)
s = 36: (0, 40, 8, 15, 19, 69, 24, 7, 37, 15, 3, 0)
s = 37: (0, 25, 8, 18, 22, 35, 23, 10, 27, 20, 5, 0)
s = 38: (0, 19, 5, 21, 16, 58, 17, 7, 29, 13, 4, 0)
s = 39: (0, 30, 4, 18, 36, 55, 13, 9, 39, 10, 5, 0)
s = 40: (0, 65, 6, 16, 17, 41, 15, 14, 28, 15, 6, 0)
s = 41: (0, 44, 6, 27, 12, 33, 12, 7, 34, 20, 4, 0)
s = 42: (0, 34, 6, 22, 16, 66, 15, 12, 37, 18, 4, 0)
s = 43: (0, 23, 7, 21, 13, 58, 26, 6, 51, 16, 5, 0)
s = 44: (0, 22, 8, 18, 17, 58, 23, 5, 17, 18, 5, 0)
s = 45: (0, 21, 8, 18, 21, 58, 25, 7, 30, 20, 4, 0)
s = 46: (0, 51, 9, 24, 18, 46, 15, 11, 25, 16, 3, 0)
s = 47: (0, 22, 5, 17, 33, 73, 31, 12, 32, 19, 6, 0)
s = 48: (0, 58, 7, 15, 16, 50, 22, 7, 32, 13, 4, 0)
s = 49: (0, 34, 4, 17, 14, 74, 25, 6, 50, 18, 3, 0)
s = 50: (0, 29, 7, 12, 13, 44, 23, 9, 37, 13, 6, 0)
s = 51: (0, 45, 7, 21, 28, 71, 19, 10, 20, 17, 6, 0)
s = 52: (0, 25, 8, 20, 21, 80, 18, 6, 39, 12, 4, 0)
s = 53: (0, 27, 6, 16, 27, 39, 29, 8, 30, 13, 5, 0)
s = 54: (0, 29, 4, 19, 28, 43, 20, 8, 37, 20, 6, 0)
s = 55: (0, 23, 6, 12, 21, 28, 23, 7, 38, 13, 5, 0)
s = 56: (0, 27, 7, 15, 19, 49, 15, 7, 36, 10, 8, 0)
s = 57: (0, 38, 4, 15, 23, 33, 20, 11, 47, 25, 6, 0)
s = 58: (0, 32, 7, 19, 25, 35, 20, 7, 35, 21, 4, 0)
s = 59: (0, 39, 7, 10, 30, 80, 12, 7, 25, 17, 5, 0)
s = 60: (0, 41, 4, 16, 25, 43, 15, 11, 47, 16, 5, 0)
s = 61: (0, 49, 6, 21, 24, 63, 16, 7, 29, 17, 4, 0)
s = 62: (0, 38, 6, 13, 25, 42, 20, 9, 51, 19, 4, 0)
s = 63: (0, 56, 9, 20, 26, 34, 13, 7, 26, 12, 4, 0)
s = 64: (0, 28, 8, 19, 19, 33, 23, 10, 32, 27, 5, 0)
s = 65: (0, 30, 10, 13, 24, 35, 18, 10, 27, 20, 3, 0)
s = 66: (0, 39, 6, 13, 31, 51, 29, 6, 24, 10, 4, 0)
s = 67: (0, 36, 6, 12, 18, 36, 17, 7, 25, 12, 5, 0)
s = 68: (0, 49, 8, 20, 19, 43, 20, 5, 28, 15, 3, 0)
s = 69: (0, 31, 5, 11, 14, 89, 23, 5, 26, 20, 4, 0)
s = 70: (0, 32, 5, 18, 22, 35, 19, 6, 26, 15, 4, 0)
s = 71: (0, 26, 8, 10, 17, 41, 14, 6, 28, 18, 5, 0)
s = 72: (0, 29, 7, 19, 27, 47, 16, 9, 52, 15, 6, 0)
s = 73: (0, 28, 7, 18, 21, 34, 30, 11, 35, 10, 7, 0)
s = 74: (0, 36, 9, 22, 23, 58, 25, 9, 40, 16, 3, 0)
s = 75: (0, 42, 5, 19, 28, 77, 26, 7, 25, 23, 3, 0)
s = 76: (0, 50, 4, 15, 23, 31, 15, 9, 19, 11, 7, 0)
s = 77: (0, 35, 5, 16, 24, 59, 24, 9, 29, 10, 4, 0)
s = 78: (0, 44, 7, 25, 13, 65, 24, 7, 48, 16, 4, 0)
s = 79: (0, 37, 5, 15, 19, 51, 14, 8, 27, 17, 5, 0)
s = 80: (0, 38, 8, 24, 21, 59, 17, 5, 58, 16, 5, 0)
s = 81: (0, 37, 4, 23, 22, 56, 11, 6, 30, 13, 4, 0)
s = 82: (0, 25, 6, 12, 16, 57, 23, 15, 28, 15, 3, 0)
s = 83: (0, 53, 5, 23, 16, 57, 22, 7, 27, 15, 6, 0)
s = 84: (0, 31, 6, 19, 16, 71, 29, 9, 24, 17, 5, 0)
s = 85: (0, 62, 10, 17, 28, 49, 13, 12, 48, 17, 5, 0)
s = 86: (0, 36, 5, 16, 21, 64, 31, 7, 18, 11, 5, 0)
s = 87: (0, 54, 5, 24, 22, 40, 18, 7, 33, 10, 5, 0)
s = 88: (0, 42, 8, 19, 23, 73, 19, 7, 35, 20, 6, 0)
s = 89: (0, 46, 6, 23, 22, 30, 24, 10, 24, 16, 3, 0)
s = 90: (0, 31, 5, 19, 29, 39, 17, 8, 27, 12, 4, 0)
s = 91: (0, 30, 8, 12, 15, 66, 21, 7, 21, 15, 5, 0)
s = 92: (0, 31, 7, 16, 21, 33, 26, 9, 35, 12, 5, 0)
s = 93: (0, 29, 4, 19, 24, 62, 23, 6, 47, 18, 4, 0)
s = 94: (0, 27, 4, 15, 15, 45, 16, 11, 33, 24, 3, 0)
s = 95: (0, 45, 4, 25, 25, 42, 21, 10, 33, 11, 5, 0)
s = 96: (0, 33, 7, 19, 21, 57, 15, 9, 32, 14, 6, 0)
s = 97: (0, 33, 6, 13, 29, 55, 25, 10, 30, 11, 4, 0)
s = 98: (0, 32, 9, 21, 14, 36, 30, 8, 34, 15, 5, 0)
s = 99: (0, 31, 9, 18, 18, 68, 21, 6, 27, 8, 4, 0)
s = 100: (0, 38, 6, 13, 21, 35, 11, 13, 30, 17, 4, 0)
s = 101: (0, 51, 8, 23, 23, 38, 20, 10, 32, 14, 3, 0)
s = 102: (0, 25, 7, 28, 22, 52, 21, 10, 38, 22, 5, 0)
s = 103: (0, 25, 8, 17, 29, 33, 11, 12, 22, 23, 5, 0)
s = 104: (0, 28, 5, 19, 17, 43, 16, 7, 23, 12, 4, 0)
s = 105: (0, 22, 6, 17, 14, 56, 15, 8, 37, 23, 6, 0)
s = 106: (0, 49, 7, 20, 25, 41, 27, 8, 39, 16, 6, 0)
s = 107: (0, 25, 6, 18, 20, 57, 22, 7, 22, 14, 5, 0)
s = 108: (0, 48, 6, 11, 30, 36, 12, 15, 23, 22, 3, 0)
s = 109: (0, 47, 8, 12, 15, 52, 16, 12, 20, 18, 6, 0)
s = 110: (0, 33, 8, 26, 29, 47, 15, 13, 29, 18, 5, 0)
s = 111: (0, 42, 9, 30, 23, 36, 32, 6, 37, 13, 5, 0)
s = 112: (0, 23, 8, 21, 18, 49, 16, 6, 57, 11, 4, 0)
s = 113: (0, 50, 8, 15, 15, 79, 28, 11, 44, 17, 6, 0)
s = 114: (0, 23, 10, 18, 36, 46, 21, 11, 34, 16, 4, 0)
s = 115: (0, 48, 4, 16, 21, 66, 13, 9, 36, 13, 4, 0)
s = 116: (0, 24, 12, 16, 17, 57, 14, 10, 42, 13, 3, 0)
s = 117: (0, 33, 9, 27, 25, 53, 13, 11, 26, 17, 3, 0)
s = 118: (0, 29, 5, 14, 18, 60, 26, 6, 29, 24, 5, 0)
s = 119: (0, 50, 10, 11, 25, 72, 27, 10, 25, 11, 7, 0)
s = 120: (0, 24, 6, 17, 20, 35, 18, 13, 28, 13, 3, 0)
s = 121: (0, 25, 6, 20, 29, 43, 28, 9, 20, 11, 4, 0)
s = 122: (0, 40, 10, 21, 20, 52, 12, 8, 33, 8, 4, 0)
s = 123: (0, 54, 9, 21, 22, 35, 18, 14, 29, 24, 7, 0)
s = 124: (0, 23, 7, 21, 27, 33, 15, 7, 25, 15, 4, 0)
s = 125: (0, 40, 12, 15, 23, 59, 16, 11, 30, 16, 3, 0)
s = 126: (0, 27, 6, 31, 26, 65, 14, 11, 50, 20, 5, 0)
s = 127: (0, 38, 8, 14, 23, 56, 20, 5, 38, 12, 7, 0)
s = 128: (0, 37, 7, 16, 16, 54, 28, 8, 31, 16, 7, 0)
s = 129: (0, 35, 7, 19, 26, 34, 27, 10, 21, 15, 4, 0)
s = 130: (0, 30, 6, 13, 20, 28, 29, 8, 47, 9, 5, 0)
s = 131: (0, 41, 4, 21, 16, 42, 18, 7, 36, 22, 3, 0)
s = 132: (0, 33, 5, 17, 19, 86, 18, 7, 47, 13, 4, 0)
s = 133: (0, 61, 6, 21, 12, 50, 27, 12, 34, 19, 3, 0)
s = 134: (0, 36, 9, 18, 19, 28, 29, 6, 51, 10, 3, 0)
s = 135: (0, 28, 8, 25, 15, 46, 12, 7, 35, 17, 5, 0)
s = 136: (0, 44, 6, 18, 21, 45, 24, 6, 30, 20, 5, 0)
s = 137: (0, 27, 5, 30, 13, 46, 18, 10, 41, 11, 7, 0)
s = 138: (0, 57, 7, 15, 16, 49, 28, 13, 33, 17, 3, 0)
s = 139: (0, 38, 9, 19, 30, 45, 17, 10, 32, 12, 6, 0)
s = 140: (0, 42, 5, 12, 27, 68, 25, 10, 46, 21, 3, 0)
s = 141: (0, 22, 9, 20, 20, 33, 27, 9, 46, 11, 6, 0)
s = 142: (0, 54, 6, 17, 25, 56, 25, 8, 31, 30, 3, 0)
s = 143: (0, 22, 8, 15, 22, 74, 23, 11, 19, 15, 5, 0)
s = 144: (0, 49, 7, 19, 25, 32, 23, 7, 47, 17, 6, 0)
s = 145: (0, 32, 7, 19, 14, 49, 17, 6, 28, 11, 7, 0)
s = 146: (0, 32, 4, 17, 17, 41, 32, 6, 38, 13, 4, 0)
s = 147: (0, 46, 4, 18, 27, 41, 27, 10, 48, 15, 4, 0)
s = 148: (0, 43, 5, 17, 15, 66, 18, 9, 34, 12, 5, 0)
s = 149: (0, 35, 5, 25, 25, 50, 23, 7, 35, 10, 5, 0)
s = 150: (0, 44, 7, 13, 14, 51, 25, 5, 32, 11, 6, 0)
s = 151: (0, 34, 7, 15, 15, 78, 13, 7, 26, 17, 4, 0)
s = 152: (0, 35, 9, 15, 17, 46, 20, 9, 36, 10, 4, 0)
s = 153: (0, 44, 7, 21, 25, 69, 22, 5, 33, 19, 5, 0)
s = 154: (0, 31, 6, 25, 22, 50, 21, 9, 34, 17, 4, 0)
s = 155: (0, 39, 6, 22, 16, 47, 12, 9, 25, 16, 7, 0)
s = 156: (0, 41, 8, 18, 29, 41, 18, 8, 23, 9, 3, 0)
s = 157: (0, 41, 7, 22, 25, 81, 19, 11, 37, 9, 3, 0)
s = 158: (0, 20, 4, 20, 27, 53, 13, 8, 23, 11, 3, 0)
s = 159: (0, 41, 5, 16, 34, 40, 19, 6, 24, 12, 4, 0)
s = 160: (0, 45, 5, 17, 15, 73, 21, 6, 39, 12, 4, 0)
s = 161: (0, 25, 10, 14, 18, 60, 19, 8, 35, 13, 4, 0)
s = 162: (0, 38, 6, 16, 15, 68, 20, 12, 40, 23, 4, 0)
s = 163: (0, 56, 6, 19, 18, 53, 26, 9, 43, 16, 4, 0)
s = 164: (0, 35, 5, 13, 23, 37, 19, 7, 42, 21, 6, 0)
s = 165: (0, 50, 5, 20, 24, 68, 18, 6, 22, 12, 5, 0)
s = 166: (0, 32, 6, 18, 28, 43, 15, 9, 21, 11, 4, 0)
s = 167: (0, 45, 4, 25, 16, 60, 18, 11, 32, 21, 4, 0)
s = 168: (0, 26, 8, 24, 23, 32, 14, 8, 23, 16, 5, 0)
s = 169: (0, 54, 7, 17, 25, 55, 14, 8, 29, 9, 5, 0)
s = 170: (0, 37, 6, 22, 12, 42, 19, 8, 31, 21, 5, 0)
s = 171: (0, 51, 8, 16, 18, 42, 16, 7, 26, 18, 6, 0)
s = 172: (0, 35, 11, 17, 19, 36, 19, 6, 24, 15, 3, 0)
s = 173: (0, 54, 5, 20, 15, 49, 19, 9, 22, 11, 3, 0)
s = 174: (0, 22, 6, 23, 18, 61, 15, 13, 24, 18, 5, 0)
s = 175: (0, 40, 7, 16, 15, 68, 13, 7, 36, 13, 4, 0)
s = 176: (0, 35, 6, 21, 15, 35, 18, 11, 42, 13, 4, 0)
s = 177: (0, 25, 5, 19, 19, 55, 15, 6, 42, 17, 5, 0)
s = 178: (0, 30, 8, 23, 24, 42, 25, 12, 21, 15, 5, 0)
s = 179: (0, 55, 7, 21, 14, 61, 18, 7, 31, 18, 4, 0)
s = 180: (0, 36, 7, 14, 39, 62, 23, 5, 34, 20, 7, 0)
s = 181: (0, 37, 5, 20, 21, 47, 27, 8, 27, 16, 6, 0)
s = 182: (0, 32, 7, 24, 19, 36, 22, 7, 34, 17, 5, 0)
s = 183: (0, 44, 9, 17, 19, 53, 26, 6, 31, 11, 5, 0)
s = 184: (0, 36, 7, 14, 30, 34, 19, 6, 22, 11, 4, 0)
s = 185: (0, 34, 8, 24, 26, 32, 20, 6, 27, 11, 6, 0)
s = 186: (0, 29, 7, 22, 23, 58, 27, 9, 42, 17, 5, 0)
s = 187: (0, 34, 4, 25, 16, 39, 14, 11, 22, 18, 4, 0)
s = 188: (0, 22, 5, 16, 21, 66, 15, 10, 21, 18, 3, 0)
s = 189: (0, 20, 7, 21, 32, 41, 24, 12, 24, 14, 5, 0)
s = 190: (0, 37, 7, 21, 22, 51, 21, 8, 25, 11, 6, 0)
s = 191: (0, 37, 6, 21, 22, 42, 28, 5, 36, 21, 6, 0)
s = 192: (0, 25, 11, 28, 19, 28, 25, 11, 33, 13, 4, 0)
s = 193: (0, 30, 6, 20, 14, 26, 15, 7, 47, 16, 6, 0)
s = 194: (0, 26, 8, 25, 19, 28, 19, 9, 31, 20, 7, 0)
s = 195: (0, 42, 8, 29, 31, 32, 16, 8, 26, 14, 4, 0)
s = 196: (0, 31, 6, 15, 29, 33, 18, 10, 42, 14, 4, 0)
s = 197: (0, 20, 5, 15, 30, 31, 22, 6, 28, 14, 3, 0)
s = 198: (0, 33, 8, 18, 16, 39, 16, 6, 49, 16, 4, 0)
s = 199: (0, 28, 4, 25, 28, 40, 16, 9, 33, 10, 5, 0)
s = 200: (0, 39, 6, 19, 21, 59, 24, 6, 26, 13, 5, 0)
------------------------------------------------------------------------
RESOURCE k = 2
s = 1: (0, 27, 10, 13, 38, 55, 9, 9, 16, 18, 17, 0)
s = 2: (0, 19, 12, 25, 37, 48, 18, 10, 25, 23, 16, 0)
s = 3: (0, 18, 7, 11, 26, 41, 14, 11, 27, 15, 11, 0)
s = 4: (0, 22, 8, 12, 27, 79, 19, 8, 22, 16, 14, 0)
s = 5: (0, 32, 9, 18, 26, 60, 18, 10, 16, 23, 17, 0)
s = 6: (0, 15, 10, 16, 30, 69, 16, 9, 21, 21, 11, 0)
s = 7: (0, 22, 8, 25, 33, 54, 10, 11, 19, 11, 8, 0)
s = 8: (0, 21, 9, 16, 28, 77, 13, 10, 12, 14, 13, 0)
s = 9: (0, 27, 9, 18, 38, 55, 10, 9, 17, 18, 17, 0)
s = 10: (0, 36, 17, 12, 25, 67, 8, 6, 13, 14, 13, 0)
s = 11: (0, 35, 15, 12, 24, 56, 13, 9, 19, 19, 14, 0)
s = 12: (0, 37, 7, 16, 19, 44, 18, 7, 9, 14, 17, 0)
s = 13: (0, 32, 9, 21, 43, 36, 18, 6, 16, 20, 15, 0)
s = 14: (0, 20, 15, 19, 23, 60, 10, 9, 15, 28, 16, 0)
s = 15: (0, 27, 6, 18, 20, 53, 16, 8, 11, 20, 14, 0)
s = 16: (0, 25, 12, 17, 45, 76, 9, 6, 10, 16, 11, 0)
s = 17: (0, 34, 8, 10, 18, 86, 16, 8, 26, 22, 9, 0)
s = 18: (0, 19, 7, 24, 23, 77, 10, 6, 14, 19, 14, 0)
s = 19: (0, 18, 9, 12, 25, 43, 19, 14, 15, 20, 10, 0)
s = 20: (0, 22, 11, 10, 43, 56, 10, 11, 19, 16, 9, 0)
s = 21: (0, 24, 10, 13, 32, 50, 15, 12, 18, 12, 16, 0)
s = 22: (0, 18, 10, 25, 39, 64, 17, 9, 26, 14, 11, 0)
s = 23: (0, 20, 14, 16, 47, 104, 13, 6, 12, 17, 12, 0)
s = 24: (0, 26, 8, 17, 22, 73, 19, 10, 17, 21, 8, 0)
s = 25: (0, 18, 10, 14, 19, 84, 20, 9, 20, 11, 9, 0)
s = 26: (0, 38, 9, 19, 24, 92, 10, 7, 15, 15, 17, 0)
s = 27: (0, 22, 14, 22, 20, 79, 19, 8, 26, 15, 9, 0)
s = 28: (0, 20, 12, 14, 31, 67, 12, 6, 19, 17, 18, 0)
s = 29: (0, 34, 9, 20, 25, 69, 14, 9, 12, 23, 14, 0)
s = 30: (0, 22, 10, 19, 38, 83, 13, 5, 14, 17, 11, 0)
s = 31: (0, 20, 13, 15, 42, 39, 16, 8, 24, 17, 15, 0)
s = 32: (0, 27, 10, 15, 25, 73, 10, 10, 14, 21, 23, 0)
s = 33: (0, 25, 12, 11, 25, 34, 13, 5, 21, 17, 20, 0)
s = 34: (0, 22, 15, 16, 24, 41, 18, 5, 10, 12, 21, 0)
s = 35: (0, 23, 12, 15, 23, 58, 10, 7, 18, 12, 14, 0)
s = 36: (0, 27, 13, 14, 28, 88, 17, 7, 19, 18, 7, 0)
s = 37: (0, 17, 13, 16, 33, 45, 16, 10, 14, 23, 14, 0)
s = 38: (0, 13, 9, 19, 24, 75, 12, 7, 15, 16, 12, 0)
s = 39: (0, 20, 7, 16, 54, 71, 9, 9, 20, 12, 14, 0)
s = 40: (0, 43, 10, 15, 25, 53, 10, 14, 14, 18, 17, 0)
s = 41: (0, 29, 10, 24, 18, 43, 9, 7, 17, 24, 11, 0)
s = 42: (0, 23, 9, 19, 24, 85, 10, 12, 19, 21, 12, 0)
s = 43: (0, 15, 11, 19, 19, 75, 19, 6, 26, 19, 13, 0)
s = 44: (0, 15, 13, 16, 25, 75, 16, 5, 9, 21, 14, 0)
s = 45: (0, 14, 14, 16, 32, 74, 18, 7, 15, 24, 11, 0)
s = 46: (0, 34, 15, 21, 27, 59, 11, 11, 13, 19, 9, 0)
s = 47: (0, 15, 7, 15, 49, 94, 22, 12, 16, 23, 17, 0)
s = 48: (0, 39, 11, 14, 24, 64, 15, 7, 16, 16, 12, 0)
s = 49: (0, 23, 7, 15, 21, 95, 17, 6, 25, 21, 9, 0)
s = 50: (0, 19, 11, 10, 20, 56, 16, 9, 19, 16, 16, 0)
s = 51: (0, 30, 12, 19, 41, 91, 14, 10, 10, 21, 16, 0)
s = 52: (0, 17, 13, 18, 31, 103, 13, 6, 20, 14, 11, 0)
s = 53: (0, 18, 9, 15, 40, 50, 21, 8, 15, 16, 14, 0)
s = 54: (0, 20, 7, 17, 42, 55, 14, 8, 19, 24, 18, 0)
s = 55: (0, 15, 10, 10, 31, 36, 16, 7, 19, 15, 13, 0)
s = 56: (0, 18, 11, 14, 28, 62, 11, 7, 18, 12, 23, 0)
s = 57: (0, 25, 6, 13, 35, 42, 14, 11, 24, 29, 16, 0)
s = 58: (0, 21, 11, 17, 37, 44, 14, 7, 18, 26, 10, 0)
s = 59: (0, 26, 12, 9, 44, 102, 8, 7, 13, 21, 13, 0)
s = 60: (0, 27, 7, 14, 37, 56, 11, 11, 24, 19, 14, 0)
s = 61: (0, 33, 10, 19, 35, 81, 11, 7, 15, 20, 11, 0)
s = 62: (0, 26, 9, 12, 37, 54, 14, 9, 26, 23, 11, 0)
s = 63: (0, 37, 15, 18, 38, 44, 10, 7, 13, 14, 10, 0)
s = 64: (0, 19, 13, 17, 28, 42, 16, 10, 16, 32, 15, 0)
s = 65: (0, 20, 17, 11, 35, 45, 13, 10, 14, 24, 9, 0)
s = 66: (0, 26, 10, 12, 46, 65, 21, 6, 12, 12, 10, 0)
s = 67: (0, 24, 10, 11, 27, 46, 12, 7, 13, 15, 14, 0)
s = 68: (0, 33, 12, 18, 28, 56, 14, 5, 14, 17, 9, 0)
s = 69: (0, 21, 7, 9, 21, 114, 16, 5, 13, 24, 11, 0)
s = 70: (0, 21, 9, 16, 33, 45, 14, 6, 13, 18, 10, 0)
s = 71: (0, 17, 13, 9, 25, 52, 10, 6, 14, 21, 14, 0)
s = 72: (0, 20, 12, 17, 40, 60, 12, 9, 26, 17, 16, 0)
s = 73: (0, 19, 12, 16, 32, 43, 21, 11, 18, 12, 19, 0)
s = 74: (0, 24, 14, 20, 34, 74, 18, 9, 20, 19, 9, 0)
s = 75: (0, 28, 8, 17, 42, 99, 18, 7, 13, 27, 8, 0)
s = 76: (0, 33, 6, 13, 34, 40, 11, 9, 10, 13, 19, 0)
s = 77: (0, 23, 9, 14, 36, 75, 17, 9, 15, 12, 11, 0)
s = 78: (0, 30, 12, 22, 19, 83, 17, 7, 24, 19, 12, 0)
s = 79: (0, 25, 9, 14, 29, 66, 10, 8, 14, 21, 14, 0)
s = 80: (0, 26, 13, 21, 31, 75, 12, 5, 29, 19, 13, 0)
s = 81: (0, 25, 7, 20, 32, 71, 8, 6, 15, 16, 12, 0)
s = 82: (0, 17, 10, 11, 23, 74, 16, 15, 14, 18, 9, 0)
s = 83: (0, 35, 9, 21, 24, 73, 15, 7, 14, 18, 17, 0)
s = 84: (0, 21, 9, 17, 24, 92, 20, 9, 12, 20, 14, 0)
s = 85: (0, 42, 16, 15, 42, 63, 9, 12, 24, 20, 14, 0)
s = 86: (0, 24, 8, 14, 32, 83, 22, 7, 9, 13, 13, 0)
s = 87: (0, 36, 7, 22, 33, 51, 13, 7, 17, 12, 14, 0)
s = 88: (0, 28, 13, 17, 35, 93, 14, 7, 18, 24, 16, 0)
s = 89: (0, 31, 10, 20, 33, 38, 17, 10, 12, 19, 7, 0)
s = 90: (0, 21, 9, 17, 43, 50, 12, 8, 14, 14, 12, 0)
s = 91: (0, 20, 13, 11, 23, 84, 15, 7, 11, 17, 13, 0)
s = 92: (0, 21, 11, 14, 31, 42, 18, 9, 18, 14, 15, 0)
s = 93: (0, 19, 6, 17, 36, 79, 16, 6, 24, 22, 12, 0)
s = 94: (0, 18, 7, 13, 22, 58, 11, 11, 17, 29, 9, 0)
s = 95: (0, 30, 7, 22, 37, 53, 15, 10, 17, 14, 13, 0)
s = 96: (0, 22, 11, 17, 32, 73, 11, 9, 16, 17, 17, 0)
s = 97: (0, 22, 9, 11, 43, 71, 18, 10, 15, 13, 10, 0)
s = 98: (0, 22, 14, 19, 21, 46, 21, 8, 17, 18, 15, 0)
s = 99: (0, 21, 15, 16, 27, 88, 15, 6, 14, 10, 11, 0)
s = 100: (0, 26, 10, 12, 31, 45, 8, 13, 15, 20, 11, 0)
s = 101: (0, 34, 12, 20, 35, 49, 14, 10, 16, 17, 8, 0)
s = 102: (0, 17, 11, 25, 32, 67, 15, 10, 19, 26, 13, 0)
s = 103: (0, 17, 13, 15, 43, 43, 8, 12, 11, 27, 13, 0)
s = 104: (0, 19, 8, 17, 26, 56, 12, 7, 12, 14, 10, 0)
s = 105: (0, 15, 10, 15, 21, 72, 11, 8, 19, 27, 16, 0)
s = 106: (0, 33, 12, 18, 37, 53, 19, 8, 20, 19, 16, 0)
s = 107: (0, 17, 9, 16, 30, 73, 16, 7, 11, 17, 13, 0)
s = 108: (0, 32, 10, 10, 45, 46, 9, 15, 12, 26, 9, 0)
s = 109: (0, 31, 13, 11, 22, 66, 11, 12, 10, 21, 17, 0)
s = 110: (0, 22, 14, 23, 43, 60, 10, 13, 15, 22, 15, 0)
s = 111: (0, 28, 15, 26, 35, 46, 22, 6, 19, 15, 15, 0)
s = 112: (0, 15, 12, 18, 27, 63, 11, 6, 29, 13, 10, 0)
s = 113: (0, 34, 13, 14, 23, 102, 20, 11, 22, 21, 16, 0)
s = 114: (0, 15, 16, 16, 53, 59, 15, 11, 17, 19, 10, 0)
s = 115: (0, 32, 6, 14, 31, 84, 9, 9, 18, 15, 11, 0)
s = 116: (0, 16, 19, 15, 25, 73, 10, 10, 21, 15, 9, 0)
s = 117: (0, 22, 15, 24, 38, 67, 9, 11, 13, 20, 7, 0)
s = 118: (0, 19, 7, 12, 26, 76, 18, 6, 15, 29, 14, 0)
s = 119: (0, 33, 17, 10, 37, 93, 19, 10, 13, 13, 21, 0)
s = 120: (0, 16, 10, 15, 29, 45, 13, 13, 14, 15, 9, 0)
s = 121: (0, 17, 9, 18, 43, 56, 19, 9, 10, 14, 11, 0)
s = 122: (0, 27, 16, 19, 29, 67, 9, 8, 17, 10, 12, 0)
s = 123: (0, 36, 15, 19, 33, 45, 13, 14, 15, 28, 19, 0)
s = 124: (0, 15, 11, 19, 40, 42, 11, 7, 13, 18, 10, 0)
s = 125: (0, 27, 20, 14, 34, 75, 11, 11, 15, 20, 7, 0)
s = 126: (0, 18, 10, 28, 38, 83, 10, 11, 25, 24, 14, 0)
s = 127: (0, 25, 13, 12, 34, 72, 14, 5, 19, 14, 20, 0)
s = 128: (0, 25, 12, 15, 23, 70, 20, 8, 16, 19, 19, 0)
s = 129: (0, 24, 11, 17, 39, 44, 19, 10, 11, 18, 12, 0)
s = 130: (0, 20, 10, 12, 30, 36, 20, 8, 24, 11, 15, 0)
s = 131: (0, 28, 6, 19, 23, 53, 13, 7, 18, 26, 9, 0)
s = 132: (0, 22, 8, 15, 29, 111, 12, 7, 24, 16, 10, 0)
s = 133: (0, 41, 9, 19, 17, 64, 19, 12, 17, 22, 9, 0)
s = 134: (0, 24, 15, 16, 29, 36, 20, 6, 26, 12, 9, 0)
s = 135: (0, 19, 12, 23, 22, 59, 8, 7, 18, 20, 14, 0)
s = 136: (0, 30, 10, 16, 31, 58, 17, 6, 15, 24, 14, 0)
s = 137: (0, 18, 8, 27, 19, 59, 13, 10, 21, 13, 19, 0)
s = 138: (0, 38, 11, 13, 23, 62, 20, 13, 17, 20, 8, 0)
s = 139: (0, 25, 14, 17, 45, 58, 12, 10, 16, 15, 17, 0)
s = 140: (0, 28, 8, 10, 41, 87, 18, 10, 23, 25, 9, 0)
s = 141: (0, 15, 14, 18, 30, 42, 19, 9, 23, 14, 16, 0)
s = 142: (0, 36, 10, 15, 37, 72, 17, 8, 16, 36, 9, 0)
s = 143: (0, 15, 13, 14, 33, 95, 16, 11, 10, 18, 14, 0)
s = 144: (0, 33, 11, 17, 37, 41, 17, 7, 24, 20, 18, 0)
s = 145: (0, 21, 12, 17, 21, 63, 12, 6, 14, 13, 21, 0)
s = 146: (0, 22, 7, 15, 25, 53, 23, 6, 19, 16, 11, 0)
s = 147: (0, 31, 7, 16, 40, 52, 19, 10, 24, 17, 12, 0)
s = 148: (0, 29, 8, 15, 23, 84, 13, 9, 17, 15, 13, 0)
s = 149: (0, 24, 7, 23, 37, 64, 16, 7, 18, 11, 14, 0)
s = 150: (0, 30, 11, 12, 21, 65, 18, 5, 16, 13, 16, 0)
s = 151: (0, 23, 11, 14, 22, 100, 9, 7, 13, 20, 10, 0)
s = 152: (0, 24, 15, 13, 25, 59, 14, 9, 18, 12, 10, 0)
s = 153: (0, 30, 11, 19, 37, 89, 15, 5, 17, 23, 13, 0)
s = 154: (0, 21, 10, 22, 33, 64, 15, 9, 17, 20, 12, 0)
s = 155: (0, 26, 10, 20, 24, 60, 8, 9, 13, 19, 19, 0)
s = 156: (0, 27, 12, 16, 43, 53, 13, 8, 12, 10, 9, 0)
s = 157: (0, 28, 11, 19, 37, 104, 13, 11, 19, 10, 9, 0)
s = 158: (0, 13, 7, 18, 40, 68, 9, 8, 12, 13, 8, 0)
s = 159: (0, 28, 8, 14, 50, 51, 13, 6, 12, 14, 11, 0)
s = 160: (0, 30, 8, 16, 22, 93, 15, 6, 20, 15, 12, 0)
s = 161: (0, 17, 16, 13, 27, 77, 14, 8, 18, 16, 11, 0)
s = 162: (0, 25, 9, 14, 23, 87, 14, 12, 20, 28, 10, 0)
s = 163: (0, 37, 10, 17, 27, 68, 18, 9, 22, 20, 10, 0)
s = 164: (0, 24, 8, 12, 34, 48, 13, 7, 21, 26, 16, 0)
s = 165: (0, 33, 8, 18, 36, 87, 13, 6, 11, 14, 13, 0)
s = 166: (0, 21, 10, 16, 42, 55, 10, 9, 11, 13, 10, 0)
s = 167: (0, 30, 7, 22, 24, 77, 13, 11, 16, 25, 12, 0)
s = 168: (0, 17, 13, 21, 35, 41, 10, 8, 12, 20, 13, 0)
s = 169: (0, 36, 12, 15, 37, 70, 10, 8, 15, 11, 14, 0)
s = 170: (0, 25, 10, 20, 18, 54, 14, 8, 16, 25, 13, 0)
s = 171: (0, 34, 12, 14, 27, 54, 12, 7, 13, 21, 16, 0)
s = 172: (0, 23, 19, 15, 28, 46, 13, 6, 12, 18, 8, 0)
s = 173: (0, 36, 8, 18, 22, 63, 13, 9, 11, 13, 9, 0)
s = 174: (0, 15, 10, 20, 27, 78, 11, 13, 12, 21, 13, 0)
s = 175: (0, 27, 11, 14, 22, 88, 9, 7, 18, 16, 10, 0)
s = 176: (0, 23, 10, 18, 22, 45, 13, 11, 21, 15, 12, 0)
s = 177: (0, 17, 8, 17, 29, 71, 10, 6, 21, 21, 14, 0)
s = 178: (0, 20, 12, 21, 35, 53, 18, 12, 11, 18, 13, 0)
s = 179: (0, 37, 12, 19, 21, 79, 13, 7, 16, 22, 10, 0)
s = 180: (0, 24, 11, 12, 59, 79, 17, 5, 17, 23, 20, 0)
s = 181: (0, 25, 9, 18, 31, 60, 19, 8, 14, 19, 18, 0)
s = 182: (0, 22, 11, 21, 28, 46, 15, 7, 17, 20, 13, 0)
s = 183: (0, 30, 14, 15, 28, 68, 18, 6, 16, 13, 13, 0)
s = 184: (0, 24, 11, 13, 44, 44, 13, 6, 11, 14, 10, 0)
s = 185: (0, 23, 13, 22, 39, 41, 14, 6, 14, 13, 16, 0)
s = 186: (0, 20, 11, 20, 34, 75, 19, 9, 21, 21, 15, 0)
s = 187: (0, 23, 7, 22, 24, 50, 10, 11, 11, 21, 10, 0)
s = 188: (0, 15, 8, 14, 31, 84, 10, 10, 11, 22, 9, 0)
s = 189: (0, 14, 11, 19, 47, 53, 17, 12, 12, 16, 13, 0)
s = 190: (0, 25, 11, 19, 33, 66, 15, 8, 13, 13, 17, 0)
s = 191: (0, 25, 9, 18, 32, 53, 19, 5, 18, 25, 16, 0)
s = 192: (0, 17, 19, 25, 28, 36, 18, 11, 17, 15, 12, 0)
s = 193: (0, 20, 10, 18, 21, 33, 11, 7, 24, 19, 18, 0)
s = 194: (0, 17, 14, 22, 28, 36, 13, 9, 16, 24, 20, 0)
s = 195: (0, 28, 14, 26, 46, 41, 11, 8, 13, 17, 12, 0)
s = 196: (0, 21, 10, 13, 43, 42, 13, 10, 21, 16, 12, 0)
s = 197: (0, 14, 8, 13, 45, 39, 16, 6, 14, 17, 9, 0)
s = 198: (0, 22, 13, 16, 24, 50, 11, 6, 25, 19, 12, 0)
s = 199: (0, 19, 6, 22, 42, 51, 11, 9, 17, 12, 15, 0)
s = 200: (0, 26, 10, 17, 31, 76, 17, 6, 13, 15, 14, 0)
------------------------------------------------------------------------
RESOURCE k = 3
s = 1: (0, 36, 13, 15, 38, 13, 9, 6, 28, 20, 20, 0)
s = 2: (0, 26, 16, 28, 37, 11, 18, 6, 43, 27, 19, 0)
s = 3: (0, 24, 9, 13, 26, 10, 14, 7, 47, 17, 13, 0)
s = 4: (0, 29, 11, 13, 27, 18, 19, 5, 38, 18, 16, 0)
s = 5: (0, 42, 12, 20, 26, 14, 18, 6, 28, 27, 19, 0)
s = 6: (0, 20, 14, 18, 30, 16, 16, 6, 37, 25, 12, 0)
s = 7: (0, 29, 11, 28, 33, 12, 10, 7, 33, 13, 9, 0)
s = 8: (0, 28, 12, 18, 28, 18, 13, 7, 20, 16, 15, 0)
s = 9: (0, 36, 12, 20, 38, 13, 10, 6, 30, 21, 20, 0)
s = 10: (0, 47, 23, 14, 25, 15, 8, 4, 23, 17, 16, 0)
s = 11: (0, 46, 20, 13, 24, 13, 13, 6, 32, 22, 16, 0)
s = 12: (0, 49, 9, 18, 19, 10, 18, 4, 16, 17, 20, 0)
s = 13: (0, 42, 13, 23, 43, 8, 18, 4, 28, 24, 18, 0)
s = 14: (0, 26, 20, 22, 23, 14, 10, 6, 25, 32, 19, 0)
s = 15: (0, 36, 9, 20, 20, 12, 16, 5, 19, 23, 17, 0)
s = 16: (0, 34, 16, 19, 45, 17, 9, 4, 17, 19, 13, 0)
s = 17: (0, 45, 12, 11, 18, 20, 16, 5, 45, 25, 11, 0)
s = 18: (0, 25, 9, 27, 23, 18, 10, 4, 24, 22, 17, 0)
s = 19: (0, 24, 12, 13, 25, 10, 19, 9, 25, 23, 12, 0)
s = 20: (0, 29, 15, 11, 43, 13, 10, 7, 33, 19, 11, 0)
s = 21: (0, 32, 14, 14, 32, 12, 15, 8, 30, 14, 19, 0)
s = 22: (0, 24, 13, 28, 39, 15, 17, 6, 45, 16, 13, 0)
s = 23: (0, 26, 19, 18, 47, 24, 13, 4, 21, 20, 14, 0)
s = 24: (0, 35, 11, 19, 22, 17, 19, 6, 29, 24, 9, 0)
s = 25: (0, 23, 13, 15, 19, 19, 20, 6, 35, 13, 10, 0)
s = 26: (0, 51, 13, 21, 24, 21, 10, 5, 26, 17, 20, 0)
s = 27: (0, 30, 20, 24, 20, 18, 19, 5, 45, 18, 10, 0)
s = 28: (0, 26, 17, 16, 31, 15, 12, 4, 33, 20, 21, 0)
s = 29: (0, 45, 12, 22, 25, 16, 14, 6, 20, 27, 16, 0)
s = 30: (0, 29, 13, 22, 38, 19, 13, 4, 24, 20, 12, 0)
s = 31: (0, 26, 19, 16, 42, 9, 16, 5, 41, 19, 18, 0)
s = 32: (0, 36, 14, 17, 25, 17, 10, 6, 25, 24, 27, 0)
s = 33: (0, 33, 16, 12, 25, 8, 13, 3, 37, 19, 23, 0)
s = 34: (0, 30, 21, 18, 24, 10, 18, 4, 18, 14, 24, 0)
s = 35: (0, 31, 16, 17, 23, 13, 10, 5, 32, 14, 16, 0)
s = 36: (0, 35, 18, 15, 28, 20, 17, 4, 32, 21, 8, 0)
s = 37: (0, 22, 18, 18, 33, 10, 16, 7, 24, 27, 16, 0)
s = 38: (0, 17, 12, 21, 24, 17, 12, 4, 25, 18, 14, 0)
s = 39: (0, 26, 9, 18, 54, 16, 9, 6, 35, 14, 17, 0)
s = 40: (0, 58, 13, 16, 25, 12, 10, 9, 24, 20, 20, 0)
s = 41: (0, 39, 14, 27, 18, 10, 9, 4, 30, 28, 13, 0)
s = 42: (0, 30, 13, 22, 24, 19, 10, 8, 32, 25, 14, 0)
s = 43: (0, 20, 15, 21, 19, 17, 19, 4, 45, 22, 15, 0)
s = 44: (0, 19, 17, 18, 25, 17, 16, 3, 15, 25, 16, 0)
s = 45: (0, 19, 19, 18, 32, 17, 18, 4, 26, 28, 13, 0)
s = 46: (0, 45, 21, 24, 27, 14, 11, 7, 22, 22, 11, 0)
s = 47: (0, 19, 10, 17, 49, 21, 22, 8, 28, 26, 19, 0)
s = 48: (0, 52, 15, 15, 24, 15, 15, 5, 28, 18, 14, 0)
s = 49: (0, 30, 10, 17, 21, 22, 17, 4, 44, 24, 10, 0)
s = 50: (0, 26, 15, 12, 20, 13, 16, 6, 32, 18, 18, 0)
s = 51: (0, 40, 16, 21, 41, 21, 14, 7, 18, 24, 18, 0)
s = 52: (0, 23, 18, 20, 31, 23, 13, 4, 35, 17, 12, 0)
s = 53: (0, 24, 13, 16, 40, 12, 21, 5, 26, 18, 16, 0)
s = 54: (0, 26, 9, 19, 42, 13, 14, 5, 32, 28, 21, 0)
s = 55: (0, 20, 14, 12, 31, 8, 16, 4, 33, 17, 15, 0)
s = 56: (0, 24, 15, 15, 28, 14, 11, 5, 31, 14, 27, 0)
s = 57: (0, 34, 8, 15, 35, 10, 14, 7, 41, 34, 19, 0)
s = 58: (0, 28, 15, 19, 37, 10, 14, 4, 30, 30, 11, 0)
s = 59: (0, 34, 16, 10, 44, 23, 8, 4, 22, 24, 15, 0)
s = 60: (0, 36, 10, 16, 37, 13, 11, 7, 41, 22, 16, 0)
s = 61: (0, 43, 14, 21, 35, 18, 11, 4, 25, 24, 13, 0)
s = 62: (0, 34, 12, 13, 37, 12, 14, 6, 44, 26, 13, 0)
s = 63: (0, 50, 21, 20, 38, 10, 10, 5, 23, 16, 11, 0)
s = 64: (0, 25, 18, 19, 28, 10, 16, 7, 28, 38, 18, 0)
s = 65: (0, 27, 23, 13, 35, 10, 13, 6, 23, 28, 11, 0)
s = 66: (0, 35, 14, 13, 46, 15, 21, 4, 21, 14, 12, 0)
s = 67: (0, 32, 14, 12, 27, 11, 12, 4, 22, 17, 16, 0)
s = 68: (0, 43, 17, 20, 28, 13, 14, 4, 25, 20, 10, 0)
s = 69: (0, 27, 10, 11, 21, 26, 16, 4, 23, 28, 13, 0)
s = 70: (0, 28, 12, 18, 33, 10, 14, 4, 23, 21, 11, 0)
s = 71: (0, 23, 18, 10, 25, 12, 10, 4, 25, 24, 16, 0)
s = 72: (0, 26, 16, 19, 40, 14, 12, 6, 45, 20, 19, 0)
s = 73: (0, 25, 16, 18, 32, 10, 21, 7, 30, 14, 22, 0)
s = 74: (0, 32, 20, 22, 34, 17, 18, 6, 35, 22, 10, 0)
s = 75: (0, 37, 11, 19, 42, 22, 18, 4, 22, 32, 9, 0)
s = 76: (0, 44, 8, 15, 34, 9, 11, 6, 17, 15, 22, 0)
s = 77: (0, 31, 12, 16, 36, 17, 17, 6, 25, 14, 13, 0)
s = 78: (0, 40, 16, 25, 19, 19, 17, 4, 42, 23, 14, 0)
s = 79: (0, 33, 12, 15, 29, 15, 10, 5, 24, 24, 16, 0)
s = 80: (0, 34, 18, 24, 31, 17, 12, 3, 51, 22, 15, 0)
s = 81: (0, 33, 10, 23, 32, 16, 8, 4, 27, 19, 14, 0)
s = 82: (0, 22, 14, 12, 23, 17, 16, 10, 25, 21, 11, 0)
s = 83: (0, 47, 12, 23, 24, 17, 15, 5, 23, 20, 19, 0)
s = 84: (0, 27, 12, 19, 24, 21, 20, 6, 21, 24, 16, 0)
s = 85: (0, 55, 22, 17, 42, 14, 9, 8, 42, 24, 16, 0)
s = 86: (0, 32, 10, 16, 32, 19, 22, 5, 15, 16, 15, 0)
s = 87: (0, 48, 10, 24, 33, 12, 13, 4, 29, 14, 16, 0)
s = 88: (0, 38, 17, 19, 35, 21, 14, 4, 31, 28, 19, 0)
s = 89: (0, 41, 14, 23, 33, 9, 17, 6, 21, 22, 8, 0)
s = 90: (0, 27, 12, 19, 43, 11, 12, 5, 23, 17, 14, 0)
s = 91: (0, 27, 17, 12, 23, 19, 15, 5, 18, 20, 15, 0)
s = 92: (0, 28, 15, 16, 31, 10, 18, 6, 31, 17, 17, 0)
s = 93: (0, 26, 9, 19, 36, 18, 16, 4, 41, 25, 14, 0)
s = 94: (0, 24, 9, 15, 22, 13, 11, 7, 29, 34, 10, 0)
s = 95: (0, 40, 9, 25, 37, 12, 15, 7, 29, 16, 15, 0)
s = 96: (0, 29, 15, 19, 32, 17, 11, 6, 28, 20, 20, 0)
s = 97: (0, 30, 13, 13, 43, 16, 18, 6, 26, 15, 12, 0)
s = 98: (0, 29, 20, 21, 21, 11, 21, 5, 30, 21, 18, 0)
s = 99: (0, 28, 21, 18, 27, 20, 15, 4, 24, 12, 13, 0)
s = 100: (0, 34, 13, 13, 31, 10, 8, 8, 27, 24, 13, 0)
s = 101: (0, 45, 17, 23, 35, 11, 14, 6, 28, 20, 10, 0)
s = 102: (0, 23, 15, 28, 32, 15, 15, 6, 33, 31, 15, 0)
s = 103: (0, 22, 18, 17, 43, 10, 8, 7, 19, 32, 15, 0)
s = 104: (0, 25, 12, 19, 26, 13, 12, 5, 20, 16, 12, 0)
s = 105: (0, 19, 13, 17, 21, 16, 11, 5, 32, 31, 19, 0)
s = 106: (0, 43, 17, 20, 37, 12, 19, 5, 34, 22, 19, 0)
s = 107: (0, 22, 12, 18, 30, 17, 16, 4, 20, 20, 15, 0)
s = 108: (0, 43, 14, 11, 45, 11, 9, 9, 20, 31, 11, 0)
s = 109: (0, 42, 18, 12, 22, 15, 11, 8, 18, 25, 20, 0)
s = 110: (0, 29, 19, 26, 43, 14, 10, 9, 25, 26, 17, 0)
s = 111: (0, 37, 21, 30, 35, 11, 22, 4, 32, 18, 17, 0)
s = 112: (0, 20, 17, 21, 27, 14, 11, 4, 50, 15, 11, 0)
s = 113: (0, 45, 18, 15, 23, 23, 20, 7, 39, 24, 19, 0)
s = 114: (0, 20, 23, 18, 53, 14, 15, 7, 30, 22, 12, 0)
s = 115: (0, 43, 9, 16, 31, 19, 9, 6, 31, 17, 13, 0)
s = 116: (0, 21, 27, 16, 25, 17, 10, 6, 37, 18, 11, 0)
s = 117: (0, 30, 21, 27, 38, 15, 9, 7, 22, 24, 9, 0)
s = 118: (0, 26, 10, 14, 26, 17, 18, 4, 26, 34, 16, 0)
s = 119: (0, 44, 23, 11, 37, 21, 19, 7, 22, 15, 24, 0)
s = 120: (0, 22, 14, 17, 29, 10, 13, 9, 25, 18, 10, 0)
s = 121: (0, 22, 12, 20, 43, 13, 19, 6, 18, 16, 13, 0)
s = 122: (0, 35, 23, 21, 29, 15, 9, 5, 29, 11, 14, 0)
s = 123: (0, 48, 21, 21, 33, 10, 13, 9, 25, 33, 22, 0)
s = 124: (0, 20, 15, 21, 40, 10, 11, 5, 22, 21, 11, 0)
s = 125: (0, 36, 28, 15, 34, 17, 11, 7, 26, 23, 9, 0)
s = 126: (0, 24, 13, 31, 38, 19, 10, 7, 44, 28, 17, 0)
s = 127: (0, 34, 19, 14, 34, 16, 14, 3, 33, 16, 23, 0)
s = 128: (0, 33, 16, 16, 23, 16, 20, 5, 27, 22, 22, 0)
s = 129: (0, 31, 16, 19, 39, 10, 19, 7, 18, 21, 14, 0)
s = 130: (0, 27, 14, 13, 30, 8, 20, 5, 41, 13, 17, 0)
s = 131: (0, 37, 8, 21, 23, 12, 13, 4, 32, 30, 10, 0)
s = 132: (0, 30, 11, 17, 29, 25, 12, 4, 41, 18, 12, 0)
s = 133: (0, 54, 13, 21, 17, 15, 19, 8, 29, 26, 10, 0)
s = 134: (0, 32, 21, 18, 29, 8, 20, 4, 45, 14, 11, 0)
s = 135: (0, 25, 17, 25, 22, 13, 8, 5, 31, 24, 16, 0)
s = 136: (0, 39, 14, 18, 31, 13, 17, 4, 26, 28, 16, 0)
s = 137: (0, 24, 10, 30, 19, 13, 13, 7, 36, 16, 22, 0)
s = 138: (0, 51, 15, 15, 23, 14, 20, 8, 29, 23, 10, 0)
s = 139: (0, 34, 19, 19, 45, 13, 12, 6, 28, 17, 20, 0)
s = 140: (0, 38, 10, 12, 41, 20, 18, 6, 40, 29, 11, 0)
s = 141: (0, 19, 20, 20, 30, 10, 19, 6, 40, 16, 19, 0)
s = 142: (0, 48, 14, 17, 37, 16, 17, 5, 27, 42, 11, 0)
s = 143: (0, 19, 18, 15, 33, 21, 16, 7, 17, 21, 17, 0)
s = 144: (0, 44, 15, 19, 37, 9, 17, 4, 41, 23, 20, 0)
s = 145: (0, 28, 16, 19, 21, 14, 12, 4, 24, 15, 24, 0)
s = 146: (0, 29, 10, 17, 25, 12, 23, 4, 33, 18, 13, 0)
s = 147: (0, 41, 9, 18, 40, 12, 19, 7, 42, 20, 14, 0)
s = 148: (0, 39, 10, 17, 23, 19, 13, 6, 30, 17, 15, 0)
s = 149: (0, 31, 10, 25, 37, 15, 16, 5, 30, 13, 16, 0)
s = 150: (0, 39, 15, 13, 21, 15, 18, 4, 28, 15, 18, 0)
s = 151: (0, 30, 16, 15, 22, 23, 9, 4, 23, 23, 12, 0)
s = 152: (0, 32, 21, 15, 25, 14, 14, 6, 31, 14, 12, 0)
s = 153: (0, 39, 15, 21, 37, 20, 15, 3, 29, 27, 15, 0)
s = 154: (0, 28, 13, 25, 33, 15, 15, 6, 30, 24, 14, 0)
s = 155: (0, 34, 14, 22, 24, 14, 8, 6, 22, 22, 22, 0)
s = 156: (0, 36, 17, 18, 43, 12, 13, 5, 20, 12, 10, 0)
s = 157: (0, 37, 16, 22, 37, 23, 13, 7, 33, 12, 10, 0)
s = 158: (0, 18, 10, 20, 40, 16, 9, 5, 20, 15, 9, 0)
s = 159: (0, 37, 11, 16, 50, 12, 13, 4, 21, 16, 12, 0)
s = 160: (0, 40, 12, 17, 22, 21, 15, 4, 34, 17, 14, 0)
s = 161: (0, 23, 22, 14, 27, 18, 14, 5, 31, 18, 13, 0)
s = 162: (0, 34, 13, 16, 23, 20, 14, 7, 35, 32, 12, 0)
s = 163: (0, 50, 14, 19, 27, 15, 18, 6, 38, 23, 11, 0)
s = 164: (0, 31, 11, 13, 34, 11, 13, 5, 37, 30, 19, 0)
s = 165: (0, 44, 11, 20, 36, 20, 13, 4, 20, 16, 15, 0)
s = 166: (0, 28, 14, 18, 42, 13, 10, 6, 18, 15, 11, 0)
s = 167: (0, 40, 10, 25, 24, 18, 13, 7, 28, 30, 14, 0)
s = 168: (0, 23, 18, 24, 35, 10, 10, 5, 20, 23, 15, 0)
s = 169: (0, 48, 17, 17, 37, 16, 10, 5, 26, 12, 17, 0)
s = 170: (0, 33, 14, 22, 18, 12, 14, 5, 27, 29, 15, 0)
s = 171: (0, 46, 17, 16, 27, 12, 12, 5, 23, 25, 19, 0)
s = 172: (0, 31, 26, 17, 28, 11, 13, 4, 21, 21, 9, 0)
s = 173: (0, 48, 11, 20, 22, 14, 13, 6, 19, 16, 11, 0)
s = 174: (0, 20, 14, 23, 27, 18, 11, 8, 21, 25, 15, 0)
s = 175: (0, 36, 15, 16, 22, 20, 9, 4, 32, 18, 12, 0)
s = 176: (0, 31, 14, 21, 22, 10, 13, 7, 37, 18, 13, 0)
s = 177: (0, 22, 11, 19, 29, 16, 10, 4, 37, 24, 16, 0)
s = 178: (0, 27, 17, 23, 35, 12, 18, 7, 19, 20, 15, 0)
s = 179: (0, 49, 17, 21, 21, 18, 13, 4, 27, 25, 11, 0)
s = 180: (0, 32, 15, 14, 59, 18, 17, 3, 30, 27, 24, 0)
s = 181: (0, 33, 12, 20, 31, 14, 19, 5, 24, 22, 21, 0)
s = 182: (0, 29, 15, 24, 28, 11, 15, 5, 30, 24, 15, 0)
s = 183: (0, 39, 20, 17, 28, 16, 18, 4, 27, 16, 15, 0)
s = 184: (0, 32, 15, 14, 44, 10, 13, 4, 19, 16, 11, 0)
s = 185: (0, 30, 18, 24, 39, 9, 14, 4, 24, 15, 19, 0)
s = 186: (0, 26, 15, 22, 34, 17, 19, 6, 36, 24, 18, 0)
s = 187: (0, 31, 9, 25, 24, 12, 10, 7, 20, 25, 12, 0)
s = 188: (0, 20, 12, 16, 31, 19, 10, 7, 18, 26, 10, 0)
s = 189: (0, 18, 16, 21, 47, 12, 17, 8, 21, 19, 16, 0)
s = 190: (0, 33, 15, 21, 33, 15, 15, 5, 22, 15, 19, 0)
s = 191: (0, 33, 13, 21, 32, 12, 19, 4, 32, 29, 18, 0)
s = 192: (0, 22, 26, 28, 28, 8, 18, 7, 29, 18, 14, 0)
s = 193: (0, 26, 14, 20, 21, 8, 11, 5, 41, 22, 21, 0)
s = 194: (0, 23, 19, 25, 28, 8, 13, 6, 27, 28, 23, 0)
s = 195: (0, 38, 19, 29, 46, 10, 11, 5, 22, 20, 14, 0)
s = 196: (0, 28, 14, 15, 43, 10, 13, 6, 37, 19, 14, 0)
s = 197: (0, 18, 11, 15, 45, 9, 16, 4, 25, 20, 11, 0)
s = 198: (0, 30, 18, 18, 24, 11, 11, 4, 43, 23, 14, 0)
s = 199: (0, 25, 8, 25, 42, 12, 11, 6, 29, 14, 17, 0)
s = 200: (0, 35, 14, 19, 31, 17, 17, 4, 23, 17, 17, 0)
************************************************************************
ES/LS-VALUES:
jobnr.   ES(i)    LS(i)
------------------------------------------------------------------------
  0        0        0
  1        0       60
  2        0       63
  3        0       71
  4        4       67
  5        7       68
  6        3       75
  7       13       77
  8       15       79
  9       20       81
 10       20       83
 11       26       87
************************************************************************
BIG-M-VALUES:
M1 = 72, M2 = 238
************************************************************************
